Cars = 1..200;
Options = 1..5;
Classes = 1..24;
sequenceMinCapacity = [0, 0, 0, 0, 0];
sequenceMaxCapacity = [1, 2, 1, 2, 1];
sequenceSize = [2, 3, 3, 5, 5];
numOrdered = [3, 1, 41, 13, 4, 3, 26, 1, 1, 3, 1, 9, 1, 2, 12, 2, 4, 36, 12, 5, 13, 1, 3, 3];
classHasOption = [|false,  true, false,  true,  true
                  |false,  true,  true, false, false
                  | true, false, false, false, false
                  | true,  true, false, false, false
                  | true, false,  true,  true, false
                  | true, false, false, false,  true
                  |false, false, false,  true, false
                  |false, false,  true,  true,  true
                  | true,  true,  true, false, false
                  |false,  true,  true,  true, false
                  | true, false, false,  true,  true
                  | true, false,  true, false, false
                  | true,  true,  true,  true, false
                  |false, false,  true, false,  true
                  |false, false, false, false,  true
                  | true, false, false,  true, false
                  | true,  true, false,  true, false
                  |false,  true, false, false, false
                  |false,  true, false,  true, false
                  |false, false,  true,  true, false
                  |false, false,  true, false, false
                  |false,  true,  true, false,  true
                  | true,  true, false, false,  true
                  |false,  true, false, false,  true|];
optionOrdering = [1, 5, 4, 3, 2];
